100
100
99
96
96
94
94
93
93
90
90
88
88
88
87
87
86
85
84
84
84
83
83
83
82
81
81
80
80
77
75
75
75
74
73
69
69
67
67
66
66
65
65
64
64
63
63
63
59
58
56
55
54
54
53
53
52
50
50
50
48
48
47
47
45
43
42
42
42
41
41
41
40
39
38
38
34
34
32
32
32
31
31
30
30
29
27
26
26
26
26
25
25
25
24
23
22
22
22
21
21
20
